
--- Job bchfcnet.gms Start 02/08/22 12:14:07 34.3.0 rac355f3 WEX-WEI x86 64bit/MS Windows
--- Applying:
    C:\GAMS\34\gmsprmNT.txt
--- GAMS Parameters defined
    Input C:\Users\dekhi\Desktop\gamsworld\FCNetLib\test\bchfcnet.gms
    PageSize 0
    ScrDir C:\Users\dekhi\Desktop\gamsworld\FCNetLib\test\225a\
    SysDir C:\GAMS\34\
    LogOption 3
    ErrMsg 1
    ErrorLog 99
    IDE 1
    ResLim 3600
    LstTitleLeftAligned 1
Licensee: Eval License                                   S211214|0002AW-GEN
          Ostfalia Hochschule fuer angewandte Wissenschaften        DCE1645
          C:\Users\dekhi\Documents\GAMS\gamslice.txt
          License Admin: Mohamed Ali Dekhil, dekhil.medali@gmail.com       
          Evaluation license: Not for commercial or production use
GAMS 34.3.0   Copyright (C) 1987-2021 GAMS Development. All rights reserved
--- Starting compilation
--- bchfcnet.gms(34) 2 Mb
--- . decl.gms(15) 2 Mb
--- bchfcnet.gms(38) 2 Mb
--- . fixnet6.inc(1403) 3 Mb
--- bchfcnet.gms(67) 3 Mb
--- . equs.gms(20) 3 Mb
--- bchfcnet.gms(97) 3 Mb
--- call rm -f bchout_i.gdx startcut.txt startheur.txt cuthist.gdx agap.txt rgap.txt cntfail.txt
--- bchfcnet.gms(118) 3 Mb
--- Starting execution: elapsed 0:00:00.078
--- bchfcnet.gms(1461) 4 Mb
--- GDX File (execute_unload) C:\Users\dekhi\Desktop\gamsworld\FCNetLib\test\net.gdx
--- bchfcnet.gms(1552) 4 Mb
--- GDXin=C:\Users\dekhi\Desktop\gamsworld\FCNetLib\test\points\fixnet6.gdx
--- GDX File (execute_load) C:\Users\dekhi\Desktop\gamsworld\FCNetLib\test\points\fixnet6.gdx
--- Generating MIP model master
--- bchfcnet.gms(1556) 5 Mb
---   601 rows  1,001 columns  2,795 non-zeroes
---   500 discrete-columns
--- Executing CPLEX (Solvelink=2): elapsed 0:00:00.094

IBM ILOG CPLEX   34.3.0 rac355f3 Released Feb 25, 2021 WEI x86 64bit/MS Window

--- GAMS/Cplex Link licensed for continuous and discrete problems.

Reading parameter(s) from "C:\Users\dekhi\Desktop\gamsworld\FCNetLib\test\cplex.op2"
>>  mipstart 1
Finished reading from "C:\Users\dekhi\Desktop\gamsworld\FCNetLib\test\cplex.op2"

--- Space for names approximately 0.03 Mb
--- Use option 'names no' to turn use of names off
--- GMO memory 0.69 Mb (peak 0.69 Mb)
--- Dictionary memory 0.00 Mb
--- Cplex 20.1.0.0 link memory 0.03 Mb (peak 0.11 Mb)
--- Starting Cplex

Version identifier: 20.1.0.0 | 2020-11-10 | 9bedb6d68
CPXPARAM_Threads                                 1
CPXPARAM_MIP_Display                             4
CPXPARAM_TimeLimit                               3600
CPXPARAM_MIP_Tolerances_AbsMIPGap                0
CPXPARAM_MIP_Tolerances_MIPGap                   0
Generic callback                                 0x50
Processing 1 MIP starts.
MIP start 'm1' defined solution with objective 3983.0000.
1 of 1 MIP starts provided solutions.
MIP start 'm1' defined initial solution with objective 3983.0000.
Tried aggregator 2 times.
MIP Presolve eliminated 129 rows and 123 columns.
MIP Presolve added 14 rows and 0 columns.
MIP Presolve modified 308 coefficients.
Aggregator did 1 substitutions.
Reduced MIP has 484 rows, 877 columns, and 1768 nonzeros.
Reduced MIP has 378 binaries, 0 generals, 0 SOSs, and 0 indicators.
Presolve time = 0.00 sec. (3.28 ticks)
Probing time = 0.00 sec. (0.09 ticks)
Tried aggregator 1 time.
Detecting symmetries...
Reduced MIP has 484 rows, 877 columns, and 1768 nonzeros.
Reduced MIP has 378 binaries, 0 generals, 0 SOSs, and 0 indicators.
Presolve time = 0.00 sec. (2.57 ticks)
Probing time = 0.00 sec. (0.09 ticks)
Clique table members: 2.
MIP emphasis: balance optimality and feasibility.
MIP search method: dynamic search.
Parallel mode: none, using 1 thread.
Tried aggregator 1 time.
LP Presolve eliminated 371 rows and 371 columns.
Aggregator did 7 substitutions.
Reduced LP has 106 rows, 499 columns, and 1012 nonzeros.
Presolve time = 0.01 sec. (0.40 ticks)

Iteration log . . .
Iteration:     1   Dual objective     =            51.508000
Iteration:    62   Dual objective     =          3148.654000
Initializing dual steep norms . . .
Root relaxation solution time = 0.01 sec. (1.09 ticks)

        Nodes                                         Cuts/
   Node  Left     Objective  IInf  Best Integer    Best Bound    ItCnt     Gap

*     0+    0                         3983.0000        2.0000            99.95%
Found incumbent of value 3983.000000 after 0.01 sec. (9.01 ticks)
      0     0     3192.0420    12     3983.0000     3192.0420       69   19.86%
      0     0     3562.1291    24     3983.0000      Cuts: 54      124   10.57%
      0     0     3640.6701    18     3983.0000      Cuts: 48      167    8.59%
      0     0     3669.1261    25     3983.0000      Cuts: 34      191    7.88%
      0     0     3758.4579    31     3983.0000      Cuts: 42      238    5.64%
      0     0     3774.6510    34     3983.0000      Cuts: 46      271    5.23%
Detecting symmetries...
      0     0     3784.5823    33     3983.0000      Cuts: 36      317    4.98%
      0     0     3791.0718    37     3983.0000      Cuts: 47      346    4.82%
      0     0     3795.7894    32     3983.0000      Cuts: 25      366    4.70%
      0     0     3809.9062    34     3983.0000      Cuts: 25      396    4.35%
      0     0     3815.7160    36     3983.0000      Cuts: 23      424    4.20%
      0     0     3833.5529    31     3983.0000      Cuts: 29      462    3.75%
      0     0     3837.6112    34     3983.0000      Cuts: 16      474    3.65%
      0     0     3844.1133    28     3983.0000      Cuts: 17      494    3.49%
      0     0     3850.3417    33     3983.0000      Cuts: 32      530    3.33%
      0     0     3852.9474    33     3983.0000      Cuts: 10      549    3.27%
      0     0     3853.5793    36     3983.0000      Cuts: 24      563    3.25%
      0     0     3857.9372    34     3983.0000      Cuts: 10      578    3.14%
      0     0     3860.4880    35     3983.0000      Cuts: 17      601    3.08%
      0     0     3863.7960    39     3983.0000      Cuts: 14      628    2.99%
      0     0     3869.3533    33     3983.0000      Cuts: 18      654    2.85%
      0     0     3870.1325    33     3983.0000      Cuts: 14      666    2.83%
      0     0     3872.4104    38     3983.0000      Cuts: 13      687    2.78%
      0     0     3874.8273    38     3983.0000      Cuts: 26      716    2.72%
      0     0     3876.2109    39     3983.0000      Cuts: 32      739    2.68%
      0     0     3876.6721    39     3983.0000      Cuts: 19      747    2.67%
Detecting symmetries...
      0     2     3876.6721    39     3983.0000     3876.9284      747    2.66%
Elapsed time = 0.41 sec. (414.45 ticks, tree = 0.01 MB, solutions = 1)

Cover cuts applied:  6
Implied bound cuts applied:  4
Flow cuts applied:  22
Mixed integer rounding cuts applied:  46
Flow path cuts applied:  8
Gomory fractional cuts applied:  5

Root node processing (before b&c):
  Real time             =    0.41 sec. (414.43 ticks)
Sequential b&c:
  Real time             =    0.08 sec. (58.84 ticks)
                          ------------
Total (root+branch&cut) =    0.48 sec. (473.27 ticks)

--- MIP status (101): integer optimal solution.
--- Cplex Time: 0.48sec (det. 473.27 ticks)

--- Fixing integer variables and solving final LP...

Version identifier: 20.1.0.0 | 2020-11-10 | 9bedb6d68
CPXPARAM_Advance                                 2
CPXPARAM_Threads                                 1
CPXPARAM_MIP_Display                             4
CPXPARAM_TimeLimit                               3600
CPXPARAM_MIP_Tolerances_AbsMIPGap                0
CPXPARAM_MIP_Tolerances_MIPGap                   0
Tried aggregator 1 time.
LP Presolve eliminated 562 rows and 930 columns.
Aggregator did 21 substitutions.
Reduced LP has 17 rows, 50 columns, and 85 nonzeros.
Presolve time = 0.00 sec. (0.50 ticks)

Iteration log . . .
Iteration:     1   Dual objective     =          3420.000000

--- Fixed MIP status (1): optimal.
--- Cplex Time: 0.00sec (det. 1.15 ticks)


Proven optimal solution
MIP Solution:         3983.000000    (1671 iterations, 57 nodes)
Final Solve:          3983.000000    (8 iterations)

Best possible:        3983.000000
Absolute gap:            0.000000
Relative gap:            0.000000

--- Reading solution for model master
*** Status: Normal completion
--- Job bchfcnet.gms Stop 02/08/22 12:14:08 elapsed 0:00:00.632
